knapPI_6_1000_10000_198
n 1000
c 1724542
z 1724542
time 5.9
1,8159,8159,1
2,8968,8968,1
3,5381,5381,1
4,2667,2667,1
5,5417,5417,1
6,2475,2475,1
7,6453,6453,1
8,5632,5632,1
9,5714,5714,1
10,9052,9052,1
11,6733,6733,1
12,1834,1834,1
13,7394,7394,1
14,7446,7446,1
15,729,729,1
16,5386,5386,1
17,850,850,1
18,3019,3019,1
19,5575,5575,1
20,2134,2134,1
21,9876,9876,1
22,2597,2597,1
23,2432,2432,1
24,9269,9269,1
25,1859,1859,1
26,8769,8769,1
27,9514,9514,1
28,3675,3675,1
29,7299,7299,1
30,3347,3347,1
31,5153,5153,1
32,6185,6185,1
33,9184,9184,1
34,6403,6403,1
35,8327,8327,1
36,1628,1628,1
37,8160,8160,1
38,3519,3519,1
39,4554,4554,1
40,3843,3843,1
41,7472,7472,1
42,5555,5555,1
43,6621,6621,1
44,3571,3571,1
45,1432,1432,1
46,7103,7103,1
47,5041,5041,1
48,9753,9753,1
49,751,751,1
50,3080,3080,1
51,2688,2688,1
52,2716,2716,1
53,5745,5745,1
54,4595,4595,1
55,2421,2421,1
56,2,2,1
57,8541,8541,1
58,1100,1100,1
59,4463,4463,1
60,837,837,1
61,880,880,1
62,3701,3701,1
63,6346,6346,1
64,5371,5371,1
65,9919,9919,1
66,8351,8351,1
67,3866,3866,1
68,8364,8364,1
69,1763,1763,1
70,3196,3196,1
71,8411,8411,1
72,2258,2258,1
73,1847,1847,1
74,3942,3942,1
75,3902,3902,1
76,966,966,1
77,8939,8939,1
78,8152,8152,1
79,4420,4420,1
80,7675,7675,1
81,9363,9363,1
82,8394,8394,1
83,9841,9841,1
84,8328,8328,1
85,7323,7323,1
86,3664,3664,1
87,4483,4483,1
88,2394,2394,1
89,5986,5986,1
90,217,217,1
91,3917,3917,1
92,6000,6000,1
93,4624,4624,1
94,2301,2301,1
95,386,386,1
96,9067,9067,1
97,3831,3831,1
98,9193,9193,1
99,5876,5876,1
100,4966,4966,1
101,888,888,1
102,4511,4511,1
103,6165,6165,1
104,7496,7496,1
105,9941,9941,1
106,3367,3367,1
107,6773,6773,1
108,3415,3415,1
109,8430,8430,1
110,1171,1171,1
111,2985,2985,1
112,222,222,1
113,25,25,1
114,9621,9621,1
115,3494,3494,1
116,8774,8774,1
117,4488,4488,1
118,690,690,1
119,1654,1654,1
120,1563,1563,1
121,1664,1664,1
122,4634,4634,1
123,6828,6828,1
124,4080,4080,1
125,5888,5888,1
126,2026,2026,1
127,2825,2825,1
128,8219,8219,1
129,1203,1203,1
130,7626,7626,1
131,7500,7500,1
132,1464,1464,1
133,9361,9361,1
134,2674,2674,1
135,5882,5882,1
136,1481,1481,1
137,6143,6143,1
138,4856,4856,1
139,2966,2966,1
140,4086,4086,1
141,9233,9233,1
142,7683,7683,1
143,5807,5807,1
144,6850,6850,1
145,1271,1271,1
146,9152,9152,1
147,6765,6765,1
148,3505,3505,1
149,5297,5297,1
150,1088,1088,1
151,821,821,1
152,1431,1431,1
153,6239,6239,1
154,8592,8592,1
155,6236,6236,1
156,2364,2364,1
157,6334,6334,1
158,9357,9357,1
159,1589,1589,1
160,8508,8508,1
161,3780,3780,1
162,6314,6314,1
163,6007,6007,1
164,7291,7291,1
165,2006,2006,1
166,3613,3613,1
167,3734,3734,1
168,3027,3027,1
169,2042,2042,1
170,9083,9083,1
171,9369,9369,1
172,2398,2398,1
173,927,927,1
174,714,714,1
175,2770,2770,1
176,5472,5472,1
177,325,325,1
178,1013,1013,1
179,9630,9630,1
180,4488,4488,1
181,5988,5988,1
182,1360,1360,1
183,2252,2252,1
184,4746,4746,1
185,4886,4886,1
186,42,42,1
187,8899,8899,1
188,159,159,1
189,4172,4172,1
190,1222,1222,1
191,2018,2018,1
192,5373,5373,1
193,6108,6108,1
194,5292,5292,1
195,4605,4605,1
196,1898,1898,1
197,7422,7422,1
198,3932,3932,1
199,6969,6969,1
200,5244,5244,1
201,2938,2938,1
202,2097,2097,1
203,3819,3819,1
204,1017,1017,1
205,3442,3442,1
206,5753,5753,1
207,5391,5391,1
208,3721,3721,1
209,4239,4239,1
210,8795,8795,1
211,305,305,1
212,363,363,1
213,1630,1630,1
214,5026,5026,1
215,2423,2423,1
216,5091,5091,1
217,2474,2474,1
218,5961,5961,1
219,7414,7414,1
220,1680,1680,1
221,6880,6880,1
222,1272,1272,1
223,3496,3496,1
224,9086,9086,1
225,9272,9272,1
226,8904,8904,1
227,6541,6541,1
228,7755,7755,1
229,1378,1378,1
230,3579,3579,1
231,8809,8809,1
232,4248,4248,1
233,4483,4483,1
234,4926,4926,1
235,6725,6725,1
236,2023,2023,1
237,9082,9082,1
238,3769,3769,1
239,5367,5367,1
240,5509,5509,1
241,8542,8542,1
242,9312,9312,1
243,1020,1020,1
244,6836,6836,1
245,3416,3416,1
246,7768,7768,1
247,8184,8184,1
248,1653,1653,1
249,4944,4944,1
250,4027,4027,1
251,8042,8042,1
252,8875,8875,1
253,753,753,1
254,1548,1548,1
255,2076,2076,1
256,5260,5260,1
257,8410,8410,1
258,6687,6687,1
259,6345,6345,1
260,5993,5993,1
261,1402,1402,1
262,2933,2933,1
263,5160,5160,1
264,4555,4555,1
265,4922,4922,1
266,6951,6951,1
267,1675,1675,1
268,9015,9015,1
269,2485,2485,1
270,5615,5615,1
271,7984,7984,1
272,1673,1673,1
273,3542,3542,1
274,7336,7336,1
275,8751,8751,1
276,6827,6827,1
277,1580,1580,1
278,6175,6175,1
279,8699,8699,1
280,5562,5562,1
281,528,528,1
282,3081,3081,1
283,1898,1898,1
284,1030,1030,1
285,5747,5747,1
286,8046,8046,1
287,8676,8676,1
288,7318,7318,1
289,4477,4477,1
290,9966,9966,1
291,4077,4077,1
292,2089,2089,1
293,7146,7146,1
294,5260,5260,1
295,3949,3949,1
296,1862,1862,1
297,7385,7385,1
298,3448,3448,1
299,6583,6583,1
300,1504,1504,1
301,919,919,1
302,7640,7640,1
303,9328,9328,1
304,7887,7887,1
305,7087,7087,1
306,8202,8202,1
307,2510,2510,1
308,1197,1197,1
309,9426,9426,1
310,6093,6093,1
311,918,918,1
312,2159,2159,1
313,3196,3196,1
314,4689,4689,1
315,1784,1784,1
316,5327,5327,1
317,2185,2185,1
318,4323,4323,1
319,4139,4139,1
320,6258,6258,1
321,8085,8085,1
322,7631,7631,1
323,3586,3586,1
324,2206,2206,1
325,6470,6470,1
326,5967,5967,1
327,5629,5629,1
328,2875,2875,1
329,3061,3061,1
330,1778,1778,1
331,1327,1327,1
332,8718,8718,1
333,4430,4430,1
334,4785,4785,1
335,4872,4872,1
336,7655,7655,1
337,9473,9473,1
338,8057,8057,1
339,9797,9797,1
340,5592,5592,1
341,2179,2179,1
342,2706,2706,1
343,9980,9980,1
344,7052,7052,1
345,3477,3477,1
346,83,83,1
347,1105,1105,1
348,1659,1659,1
349,9972,9972,1
350,4197,4197,1
351,1602,1602,1
352,4989,4989,1
353,3447,3447,1
354,7253,7253,1
355,4859,4859,1
356,4411,4411,1
357,4617,4617,1
358,5840,5840,1
359,745,745,1
360,3575,3575,1
361,8402,8402,1
362,6050,6050,1
363,5217,5217,1
364,6591,6591,1
365,5795,5795,1
366,8453,8453,1
367,107,107,1
368,3339,3339,1
369,9777,9777,1
370,9970,9970,1
371,8786,8786,1
372,9557,9557,1
373,3145,3145,1
374,2451,2451,1
375,5498,5498,1
376,3015,3015,1
377,749,749,1
378,6631,6631,1
379,3269,3269,1
380,7070,7070,1
381,3462,3462,1
382,9171,9171,1
383,9655,9655,1
384,6239,6239,1
385,8981,8981,1
386,2030,2030,1
387,1583,1583,1
388,2308,2308,1
389,2268,2268,1
390,4859,4859,1
391,174,174,1
392,7814,7814,1
393,2688,2688,1
394,2785,2785,1
395,2123,2123,1
396,2917,2917,1
397,2221,2221,1
398,2615,2615,1
399,6881,6881,1
400,7416,7416,1
401,4382,4382,1
402,9092,9092,1
403,5159,5159,1
404,1476,1476,1
405,2454,2454,1
406,7896,7896,1
407,8627,8627,1
408,7746,7746,1
409,1571,1571,1
410,2135,2135,1
411,9104,9104,1
412,9868,9868,1
413,7319,7319,1
414,617,617,1
415,3389,3389,1
416,9830,9830,1
417,234,234,1
418,9915,9915,1
419,377,377,1
420,7934,7934,1
421,7133,7133,1
422,8563,8563,1
423,1494,1494,1
424,8381,8381,1
425,1006,1006,1
426,1259,1259,1
427,2444,2444,1
428,2887,2887,1
429,1684,1684,1
430,86,86,1
431,1727,1727,1
432,8328,8328,1
433,8791,8791,1
434,9081,9081,1
435,4793,4793,1
436,7253,7253,1
437,9638,9638,1
438,4783,4783,1
439,1974,1974,1
440,4887,4887,1
441,2849,2849,1
442,6955,6955,1
443,4997,4997,1
444,7949,7949,1
445,5558,5558,1
446,3603,3603,1
447,7516,7516,1
448,3689,3689,1
449,2691,2691,1
450,6294,6294,1
451,5884,5884,1
452,3867,3867,1
453,8535,8535,1
454,6393,6393,1
455,1097,1097,1
456,3325,3325,1
457,6878,6878,1
458,6251,6251,1
459,6833,6833,1
460,4835,4835,1
461,1095,1095,1
462,3709,3709,1
463,4670,4670,1
464,3095,3095,1
465,2171,2171,1
466,1891,1891,1
467,355,355,1
468,732,732,1
469,1379,1379,1
470,1164,1164,1
471,4018,4018,1
472,4897,4897,1
473,7971,7971,1
474,9672,9672,1
475,5472,5472,1
476,5411,5411,1
477,1387,1387,1
478,760,760,1
479,8712,8712,1
480,4036,4036,1
481,5909,5909,1
482,4979,4979,1
483,6417,6417,1
484,2004,2004,1
485,4878,4878,1
486,7859,7859,1
487,7730,7730,1
488,3550,3550,1
489,9555,9555,1
490,3637,3637,1
491,2091,2091,1
492,6706,6706,1
493,92,92,1
494,1406,1406,1
495,1,1,1
496,9542,9542,1
497,1529,1529,1
498,7012,7012,1
499,9766,9766,1
500,8757,8757,1
501,377,377,1
502,7221,7221,1
503,9535,9535,1
504,4553,4553,1
505,247,247,1
506,4691,4691,1
507,1057,1057,1
508,8224,8224,1
509,9995,9995,1
510,4530,4530,1
511,6624,6624,1
512,2489,2489,1
513,152,152,1
514,9311,9311,1
515,1743,1743,1
516,8209,8209,1
517,4881,4881,1
518,9193,9193,1
519,4626,4626,1
520,3028,3028,1
521,7772,7772,1
522,7913,7913,1
523,1684,1684,1
524,9798,9798,1
525,1371,1371,1
526,9218,9218,1
527,3640,3640,1
528,5753,5753,1
529,3763,3763,1
530,4273,4273,1
531,9432,9432,1
532,4494,4494,1
533,6400,6400,1
534,8241,8241,1
535,8081,8081,1
536,7512,7512,1
537,3875,3875,1
538,9779,9779,1
539,6784,6784,1
540,8104,8104,1
541,564,564,1
542,6072,6072,1
543,8785,8785,1
544,5291,5291,1
545,1273,1273,1
546,4976,4976,1
547,2658,2658,1
548,9256,9256,1
549,2180,2180,1
550,3394,3394,1
551,1164,1164,1
552,7363,7363,1
553,1191,1191,1
554,3011,3011,1
555,7783,7783,1
556,5117,5117,1
557,9817,9817,1
558,7641,7641,1
559,8107,8107,1
560,2530,2530,1
561,5134,5134,1
562,4503,4503,1
563,6750,6750,1
564,3922,3922,1
565,6819,6819,1
566,8038,8038,1
567,6621,6621,1
568,2757,2757,1
569,2549,2549,1
570,6998,6998,1
571,7120,7120,1
572,1801,1801,1
573,6551,6551,1
574,346,346,1
575,9188,9188,1
576,3832,3832,1
577,5433,5433,1
578,2773,2773,1
579,2771,2771,1
580,3958,3958,1
581,6113,6113,1
582,7596,7596,1
583,6610,6610,1
584,7978,7978,1
585,4121,4121,1
586,6884,6884,1
587,1165,1165,1
588,7451,7451,1
589,7489,7489,1
590,1768,1768,1
591,3814,3814,1
592,4155,4155,1
593,8118,8118,1
594,4257,4257,1
595,8231,8231,1
596,804,804,1
597,9411,9411,1
598,1343,1343,1
599,6794,6794,1
600,9195,9195,1
601,2675,2675,1
602,6856,6856,1
603,9279,9279,1
604,6855,6855,1
605,4999,4999,1
606,9374,9374,1
607,4878,4878,1
608,9268,9268,1
609,9321,9321,1
610,9734,9734,1
611,8616,8616,1
612,6748,6748,1
613,8467,8467,1
614,732,732,1
615,497,497,1
616,6180,6180,1
617,2566,2566,1
618,7613,7613,1
619,8893,8893,1
620,9840,9840,1
621,91,91,1
622,370,370,1
623,4657,4657,1
624,2111,2111,1
625,7098,7098,1
626,9318,9318,1
627,161,161,1
628,3814,3814,1
629,1954,1954,1
630,4736,4736,1
631,3347,3347,1
632,2259,2259,1
633,9955,9955,1
634,9248,9248,1
635,3748,3748,1
636,7026,7026,1
637,8312,8312,1
638,4258,4258,1
639,6551,6551,1
640,9447,9447,1
641,7136,7136,1
642,8341,8341,1
643,3618,3618,1
644,7056,7056,1
645,3985,3985,1
646,9494,9494,1
647,6612,6612,1
648,3944,3944,1
649,3804,3804,1
650,5431,5431,1
651,170,170,1
652,8128,8128,1
653,5977,5977,1
654,6633,6633,1
655,7314,7314,1
656,2839,2839,1
657,3627,3627,1
658,9559,9559,1
659,2188,2188,1
660,4626,4626,1
661,2210,2210,1
662,2102,2102,1
663,6161,6161,1
664,6852,6852,1
665,2679,2679,1
666,5780,5780,1
667,3274,3274,1
668,2811,2811,1
669,2081,2081,1
670,6821,6821,1
671,5063,5063,1
672,8198,8198,1
673,9127,9127,1
674,7416,7416,1
675,9992,9992,1
676,7721,7721,1
677,8674,8674,1
678,8100,8100,1
679,971,971,1
680,5000,5000,1
681,9391,9391,1
682,6477,6477,1
683,3710,3710,1
684,8354,8354,1
685,1645,1645,1
686,220,220,1
687,3331,3331,1
688,2126,2126,1
689,4803,4803,1
690,5879,5879,1
691,7199,7199,1
692,4513,4513,1
693,3375,3375,1
694,3523,3523,1
695,4042,4042,1
696,31,31,1
697,2059,2059,1
698,740,740,1
699,7220,7220,1
700,7125,7125,1
701,9466,9466,1
702,658,658,1
703,146,146,1
704,4352,4352,1
705,7612,7612,1
706,2636,2636,1
707,3171,3171,1
708,2017,2017,1
709,5534,5534,1
710,4518,4518,1
711,955,955,1
712,4258,4258,1
713,392,392,1
714,6211,6211,1
715,5904,5904,1
716,9031,9031,1
717,6637,6637,1
718,730,730,1
719,5740,5740,1
720,363,363,1
721,7779,7779,1
722,4565,4565,1
723,7380,7380,1
724,2032,2032,1
725,317,317,1
726,5934,5934,1
727,2035,2035,1
728,7183,7183,1
729,5186,5186,1
730,2919,2919,1
731,6917,6917,1
732,8116,8116,1
733,6866,6866,1
734,7616,7616,1
735,394,394,1
736,4174,4174,1
737,9429,9429,1
738,3636,3636,1
739,2476,2476,1
740,7981,7981,1
741,9263,9263,1
742,487,487,1
743,2085,2085,1
744,3998,3998,1
745,254,254,1
746,5997,5997,1
747,2491,2491,1
748,5198,5198,1
749,3012,3012,1
750,4556,4556,1
751,1727,1727,1
752,9094,9094,1
753,9545,9545,1
754,4233,4233,1
755,6843,6843,1
756,1835,1835,1
757,4757,4757,1
758,8602,8602,1
759,7590,7590,1
760,9153,9153,1
761,9544,9544,1
762,122,122,1
763,4401,4401,1
764,2190,2190,1
765,340,340,1
766,8298,8298,1
767,595,595,1
768,5224,5224,1
769,3050,3050,1
770,7381,7381,1
771,1724,1724,1
772,527,527,1
773,6837,6837,1
774,1860,1860,1
775,3761,3761,1
776,4536,4536,1
777,610,610,1
778,1342,1342,1
779,8761,8761,1
780,8626,8626,1
781,5254,5254,1
782,3476,3476,1
783,5839,5839,1
784,7665,7665,1
785,5298,5298,1
786,7484,7484,1
787,9711,9711,1
788,4251,4251,1
789,1415,1415,1
790,8317,8317,1
791,8003,8003,1
792,7028,7028,1
793,4862,4862,1
794,7604,7604,1
795,7407,7407,1
796,8940,8940,1
797,3096,3096,1
798,9133,9133,1
799,1895,1895,1
800,1577,1577,1
801,6110,6110,1
802,6366,6366,1
803,1335,1335,1
804,4212,4212,1
805,2292,2292,1
806,1845,1845,1
807,8226,8226,1
808,3099,3099,1
809,5084,5084,1
810,4321,4321,1
811,2571,2571,1
812,9485,9485,1
813,8979,8979,1
814,6978,6978,1
815,358,358,1
816,7565,7565,1
817,7439,7439,1
818,6526,6526,1
819,3102,3102,1
820,205,205,1
821,8292,8292,1
822,603,603,1
823,7014,7014,1
824,5219,5219,1
825,3753,3753,1
826,4542,4542,1
827,5092,5092,1
828,7583,7583,1
829,8997,8997,1
830,7025,7025,1
831,5425,5425,1
832,9621,9621,1
833,7810,7810,1
834,374,374,1
835,9221,9221,1
836,3115,3115,1
837,5932,5932,1
838,5066,5066,1
839,2930,2930,1
840,4472,4472,1
841,7274,7274,1
842,1675,1675,1
843,6276,6276,1
844,5768,5768,1
845,3021,3021,1
846,192,192,1
847,3178,3178,1
848,9629,9629,1
849,7918,7918,1
850,836,836,1
851,2834,2834,1
852,6421,6421,1
853,2838,2838,1
854,2472,2472,1
855,9214,9214,1
856,1580,1580,1
857,7776,7776,1
858,9555,9555,1
859,4970,4970,1
860,7456,7456,1
861,3532,3532,1
862,296,296,1
863,1207,1207,1
864,4119,4119,1
865,4127,4127,1
866,8852,8852,1
867,4402,4402,1
868,5995,5995,1
869,9652,9652,1
870,8067,8067,1
871,2447,2447,1
872,7288,7288,1
873,1453,1453,1
874,9592,9592,1
875,5848,5848,1
876,3326,3326,1
877,1133,1133,1
878,5053,5053,1
879,24,24,1
880,8445,8445,1
881,2631,2631,1
882,8252,8252,1
883,4399,4399,1
884,9319,9319,1
885,5928,5928,1
886,9379,9379,1
887,8723,8723,1
888,4554,4554,1
889,7657,7657,1
890,3717,3717,1
891,4345,4345,1
892,7769,7769,1
893,7890,7890,1
894,5474,5474,1
895,6171,6171,1
896,9668,9668,1
897,6926,6926,1
898,1363,1363,1
899,3614,3614,1
900,2120,2120,1
901,1218,1218,1
902,3328,3328,1
903,5972,5972,1
904,9995,9995,1
905,7290,7290,1
906,5410,5410,1
907,9723,9723,1
908,1347,1347,1
909,8177,8177,1
910,1695,1695,1
911,6645,6645,1
912,9769,9769,1
913,9297,9297,1
914,7040,7040,1
915,4541,4541,1
916,5230,5230,1
917,9332,9332,1
918,5855,5855,1
919,9620,9620,1
920,9119,9119,1
921,6677,6677,1
922,3930,3930,1
923,4436,4436,1
924,1821,1821,1
925,2364,2364,1
926,6385,6385,1
927,7155,7155,1
928,8259,8259,1
929,4311,4311,1
930,6851,6851,1
931,1708,1708,1
932,1830,1830,1
933,2436,2436,1
934,7350,7350,1
935,2879,2879,1
936,7088,7088,1
937,2888,2888,1
938,9495,9495,1
939,8714,8714,1
940,6926,6926,1
941,7013,7013,1
942,7733,7733,1
943,91,91,1
944,6111,6111,1
945,4978,4978,1
946,6465,6465,1
947,5981,5981,1
948,9253,9253,1
949,3442,3442,1
950,8692,8692,1
951,7643,7643,1
952,7054,7054,1
953,2663,2663,1
954,5698,5698,1
955,5645,5645,1
956,8585,8585,1
957,2955,2955,1
958,8266,8266,1
959,8100,8100,1
960,6636,6636,1
961,1374,1374,1
962,5510,5510,1
963,4391,4391,1
964,5071,5071,1
965,5514,5514,1
966,722,722,1
967,7252,7252,1
968,8897,8897,1
969,8601,8601,1
970,9608,9608,1
971,4156,4156,1
972,248,248,1
973,4722,4722,1
974,3775,3775,1
975,2456,2456,1
976,9455,9455,1
977,2844,2844,1
978,272,272,1
979,2099,2099,1
980,4002,4002,1
981,3699,3699,1
982,2375,2375,1
983,2635,2635,1
984,347,347,1
985,4731,4731,1
986,9652,9652,1
987,5556,5556,1
988,497,497,1
989,580,580,1
990,6428,6428,1
991,9986,9986,1
992,4795,4795,1
993,3701,3701,1
994,6057,6057,1
995,1803,1803,1
996,5714,5714,1
997,4106,4106,1
998,1579,1579,1
999,9512,9512,1
1000,7733,7733,1
